SystemName	siesta
SystemLabel	siesta

TS.HS.Save	True
WriteHamiltonian	True
SCFMustConverge	True

Spin	non-polarized
XC.functional	GGA
XC.authors	PBE

MeshCutoff	2721.1386024367243	eV
PAO.EnergyShift	0.1	eV

NumberOfSpecies	1
NumberOfAtoms	2
%block ChemicalSpecieslabel
    1 6 C 
%endblock ChemicalSpecieslabel

%block PAO.BasisSizes
    C	SZ
%endblock PAO.BasisSizes


LatticeConstant	1.0 Ang
%block LatticeVectors
    2.145 -1.2384163274117472 0.0
    2.145 1.2384163274117472 0.0
    0.0 0.0 20.0
%endblock LatticeVectors
AtomicCoordinatesFormat	Ang
%block AtomicCoordinatesAndAtomicSpecies
    0.0 0.0 0.0 1
    1.43 0.0 0.0 1
%endblock AtomicCoordinatesAndAtomicSpecies
%block DM.InitSpin
%endblock DM.InitSpin

DM.UseSaveDM	True

#KPoint grid
%block kgrid_Monkhorst_Pack
     10       0       0  0.0
     0       10       0  0.0
     0       0       1  0.0
%endblock kgrid_Monkhorst_Pack

